
  22   10
  10   10   10   10   10   10   10   10   10   10

   0   0   0   0   0   0   0   0   0   0   0   1 2 
   4  10  10  10  10  10  10  10  10  10  10   1 3 
  10  10  10  10  10  10  10  10  10  10  10   1 4 
   8  10  10  10  10  10  10  10  10  10  10   1 5 
   1  10  10  10  10  10  10  10  10  10  10   1 6 
   2  10  10  10  10  10  10  10  10  10  10   2 11 7 
   6  10  10  10  10  10  10  10  10  10  10   1 8 
   7  10  10  10  10  10  10  10  10  10  10   1 9 
   1  10  10  10  10  10  10  10  10  10  10   4 21 18 12 10 
   1  10  10  10  10  10  10  10  10  10  10   2 17 13 
   2  10  10  10  10  10  10  10  10  10  10   2 18 13 
   3  10  10  10  10  10  10  10  10  10  10   2 17 15 
   3  10  10  10  10  10  10  10  10  10  10   1 14 
   5  10  10  10  10  10  10  10  10  10  10   2 20 15 
   9  10  10  10  10  10  10  10  10  10  10   1 16 
   8  10  10  10  10  10  10  10  10  10  10   1 19 
   9  10  10  10  10  10  10  10  10  10  10   1 20 
   3  10  10  10  10  10  10  10  10  10  10   1 19 
   6  10  10  10  10  10  10  10  10  10  10   1 22
   6  10  10  10  10  10  10  10  10  10  10   1 22
   5  10  10  10  10  10  10  10  10  10  10   1 22
   0   0   0   0   0   0   0   0   0   0   0   0 
